HUN,8,6,241
2,2,0,19,4,16,1,52,3,88,5,33
3,95,0,72,5,57,4,66,1,50,2,78
4,36,3,84,2,69,5,7,0,27,1,54
3,80,2,56,0,55,1,90,5,94,4,15
4,92,1,16,3,19,0,36,2,23,5,37
4,40,1,23,5,58,2,27,0,17,3,66
3,26,4,64,2,32,1,33,5,69,0,52
2,5,3,82,5,27,0,32,4,2,1,58
